n = 18;
lu = [|115, 185
      |7, 13
      |-69, 322
      |-228, -137
      |-155, -112
      |-255, -151
      |-123, -113
      |-194, 45
      |-279, -193
      |-72, 28
      |152, 197
      |-260, -56
      |148, 166
      |-67, 103
      |-130, 269
      |189, 217
      |-173, 295
      |29, 150|];
